\ENCODING=ISO-8859-1
\Problem name: ilog.cplex

Minimize
 obj1: 95824 x1 + 105189 x2 + 109941 x3 + 104999 x4 + 109537 x5 + 97259 x6
       + 99394 x7 + 94912 x8 + 93516 x9 + 94788 x10 + 96719 x11 + 92071 x12
       + 90798 x13 + 96908 x14 + 105404 x15 + 95604 x16 + 103290 x17
       + 98396 x18 + 108259 x19 + 102197 x20 + 101865 x21 + 92038 x22
       + 97081 x23 + 99026 x24 + 109436 x25 + 108219 x26 + 99377 x27
       + 107307 x28 + 95229 x29 + 109751 x30 + 100606 x31 + 105133 x32
       + 100384 x33 + 108886 x34 + 107615 x35 + 104962 x36 + 92519 x37
       + 103008 x38 + 91789 x39 + 98545 x40 + 100057 x41 + 95676 x42
       + 108877 x43 + 90006 x44 + 105852 x45 + 100484 x46 + 96548 x47
       + 96448 x48 + 104088 x49 + 96644 x50 + 100435 x51 + 104673 x52
       + 104404 x53 + 97230 x54 + 94753 x55 + 92478 x56 + 102861 x57
       + 103717 x58 + 104536 x59 + 93465 x60 + 105432 x61 + 98309 x62
       + 102855 x63 + 90788 x64 + 94138 x65 + 95732 x66 + 95926 x67 + 97960 x68
       + 106609 x69 + 106455 x70 + 98335 x71 + 100547 x72 + 101120 x73
       + 108384 x74 + 93786 x75 + 103175 x76 + 104636 x77 + 102611 x78
       + 91247 x79 + 101494 x80 + 102691 x81 + 96910 x82 + 101000 x83
       + 94720 x84 + 91585 x85 + 91221 x86 + 97281 x87 + 105619 x88 + 98247 x89
       + 108626 x90 + 103372 x91 + 96729 x92 + 99221 x93 + 107282 x94
       + 93877 x95 + 108803 x96 + 106992 x97 + 96244 x98 + 108503 x99
       + 90299 x100 + 99208 x101 + 101296 x102 + 91824 x103 + 95204 x104
       + 104362 x105 + 105642 x106 + 94320 x107 + 100545 x108 + 106096 x109
       + 104726 x110 + 91378 x111 + 94660 x112 + 107534 x113 + 104476 x114
       + 99053 x115 + 92642 x116 + 106924 x117 + 97876 x118 + 107981 x119
       + 106295 x120 + 92557 x121 + 106263 x122 + 107184 x123 + 97659 x124
       + 106544 x125 + 100851 x126 + 108151 x127 + 95210 x128 + 93168 x129
       + 100524 x130 + 103851 x131 + 97183 x132 + 104802 x133 + 92173 x134
       + 90536 x135 + 101027 x136 + 91481 x137 + 100367 x138 + 100781 x139
       + 99053 x140 + 94884 x141 + 97426 x142 + 101808 x143 + 95801 x144
       + 107645 x145 + 105037 x146 + 109769 x147 + 106409 x148 + 95516 x149
       + 105584 x150 + 108844 x151 + 109607 x152 + 101469 x153 + 97445 x154
       + 105903 x155 + 97922 x156 + 98055 x157 + 95306 x158 + 109004 x159
       + 97202 x160 + 107141 x161 + 93839 x162 + 91125 x163 + 97763 x164
       + 104635 x165 + 101138 x166 + 109324 x167 + 90245 x168 + 91857 x169
       + 106878 x170 + 93902 x171 + 90714 x172 + 104953 x173 + 99421 x174
       + 102159 x175 + 91570 x176 + 109058 x177 + 105951 x178 + 106978 x179
       + 107510 x180 + 99109 x181 + 101983 x182 + 103551 x183 + 90129 x184
       + 90476 x185 + 105147 x186 + 96601 x187 + 91236 x188 + 92027 x189
       + 98238 x190 + 101553 x191 + 109905 x192 + 94561 x193 + 93202 x194
       + 107625 x195 + 94276 x196 + 96657 x197 + 101085 x198 + 96209 x199
       + 93294 x200 + 103814 x201 + 96607 x202 + 96301 x203 + 91247 x204
       + 94805 x205 + 108153 x206 + 105693 x207 + 97267 x208 + 108415 x209
       + 91012 x210 + 108918 x211 + 103949 x212 + 102009 x213 + 93277 x214
       + 109025 x215 + 101156 x216 + 92311 x217 + 101015 x218 + 107028 x219
       + 98585 x220 + 108332 x221 + 92167 x222 + 90203 x223 + 93818 x224
       + 106551 x225 + 97070 x226 + 108429 x227 + 101361 x228 + 99258 x229
       + 97604 x230 + 106364 x231 + 92541 x232 + 108396 x233 + 96650 x234
       + 98470 x235 + 106185 x236 + 99281 x237 + 94882 x238 + 103814 x239
       + 95636 x240 + 98900 x241 + 105750 x242 + 93175 x243 + 90749 x244
       + 95684 x245 + 95669 x246 + 98852 x247 + 99326 x248 + 107519 x249
       + 105569 x250 + 93558 x251 + 100483 x252 + 105377 x253 + 96015 x254
       + 100735 x255 + 106423 x256 + 92916 x257 + 92305 x258 + 99370 x259
       + 104040 x260 + 92908 x261 + 103675 x262 + 98066 x263 + 100846 x264
       + 99408 x265 + 106307 x266 + 99616 x267 + 95908 x268 + 108871 x269
       + 91085 x270 + 94231 x271 + 99558 x272 + 109705 x273 + 105394 x274
       + 101134 x275 + 101804 x276 + 91619 x277 + 107135 x278 + 105459 x279
       + 96069 x280 + 93668 x281 + 98705 x282 + 90208 x283 + 102264 x284
       + 103031 x285 + 98877 x286 + 101490 x287 + 101195 x288 + 105322 x289
       + 101276 x290 + 109340 x291 + 90898 x292 + 91642 x293 + 99624 x294
       + 96126 x295 + 104762 x296 + 107592 x297 + 91933 x298 + 99883 x299
       + 91129 x300 + 104587 x301 + 109211 x302 + 102077 x303 + 106236 x304
       + 100247 x305 + 98875 x306 + 91713 x307 + 99860 x308 + 94067 x309
       + 103243 x310 + 107928 x311 + 102312 x312 + 94615 x313 + 93218 x314
       + 100033 x315 + 109285 x316 + 104697 x317 + 101682 x318 + 103829 x319
       + 105966 x320 + 94832 x321 + 95274 x322 + 103551 x323 + 109510 x324
       + 104850 x325 + 105589 x326 + 99161 x327 + 92106 x328 + 94711 x329
       + 108333 x330 + 107800 x331 + 103096 x332 + 101150 x333 + 95198 x334
       + 106465 x335 + 100174 x336 + 102876 x337 + 95171 x338 + 101911 x339
       + 96916 x340 + 93754 x341 + 109464 x342 + 93352 x343 + 96705 x344
       + 90817 x345 + 107417 x346 + 93683 x347 + 91589 x348 + 101887 x349
       + 109499 x350 + 95757 x351 + 98679 x352 + 106236 x353 + 97914 x354
       + 91683 x355 + 106415 x356 + 100948 x357 + 105347 x358 + 95144 x359
       + 108343 x360 + 93023 x361 + 97516 x362 + 90555 x363 + 107217 x364
       + 95238 x365 + 103998 x366 + 106837 x367 + 91821 x368 + 95936 x369
       + 93589 x370 + 93987 x371 + 94725 x372 + 106101 x373 + 108390 x374
       + 104193 x375 + 108665 x376 + 103257 x377 + 96377 x378 + 103344 x379
       + 101945 x380 + 108377 x381 + 99276 x382 + 104560 x383 + 105748 x384
       + 95666 x385 + 94983 x386 + 99836 x387 + 93403 x388 + 98023 x389
       + 98425 x390 + 93625 x391 + 108165 x392 + 106959 x393 + 90299 x394
       + 108458 x395 + 104434 x396 + 107308 x397 + 99206 x398 + 94612 x399
       + 96204 x400 + 94295 x401 + 109445 x402 + 93329 x403 + 96138 x404
       + 93328 x405 + 104107 x406 + 96256 x407 + 98787 x408 + 101390 x409
       + 101073 x410 + 92540 x411 + 92326 x412 + 92918 x413 + 98159 x414
       + 99391 x415 + 94559 x416 + 102837 x417 + 92873 x418 + 91975 x419
       + 101026 x420 + 105705 x421 + 102766 x422 + 97610 x423 + 102545 x424
       + 108123 x425 + 103841 x426 + 94141 x427 + 104444 x428 + 94570 x429
       + 106040 x430 + 99009 x431 + 90293 x432 + 95730 x433 + 100571 x434
       + 94015 x435 + 102505 x436 + 98156 x437 + 105201 x438 + 93823 x439
       + 93833 x440 + 102844 x441 + 97603 x442 + 108404 x443 + 99075 x444
       + 100593 x445 + 91357 x446 + 91420 x447 + 108559 x448 + 90878 x449
       + 107715 x450 + 101295 x451 + 102563 x452 + 108630 x453 + 102223 x454
       + 97196 x455 + 102089 x456 + 101649 x457 + 96855 x458 + 98263 x459
       + 103292 x460 + 100257 x461 + 105511 x462 + 91170 x463 + 90396 x464
       + 100396 x465 + 103605 x466 + 98456 x467 + 105081 x468 + 101514 x469
       + 100876 x470 + 98062 x471 + 109070 x472 + 101402 x473 + 90668 x474
       + 93108 x475 + 91064 x476 + 91575 x477 + 108627 x478 + 90202 x479
       + 99182 x480 + 105700 x481 + 101185 x482 + 98390 x483 + 109587 x484
       + 92179 x485 + 90196 x486 + 100922 x487 + 103625 x488 + 99927 x489
       + 94521 x490 + 95948 x491 + 100419 x492 + 103291 x493 + 105492 x494
       + 91038 x495 + 92085 x496 + 91420 x497 + 109565 x498 + 91439 x499
       + 108452 x500 + 107873 x501 + 98827 x502 + 103767 x503 + 94218 x504
       + 96897 x505 + 97057 x506 + 97130 x507 + 108471 x508 + 100163 x509
       + 105863 x510 + 105105 x511 + 96112 x512 + 98434 x513 + 103119 x514
       + 107970 x515 + 106241 x516 + 98891 x517 + 94221 x518 + 96157 x519
       + 108637 x520 + 90732 x521 + 105610 x522 + 103109 x523 + 106242 x524
       + 109197 x525 + 99546 x526 + 108546 x527 + 98890 x528 + 101299 x529
       + 99313 x530 + 91614 x531 + 101531 x532 + 95317 x533 + 104820 x534
       + 97470 x535 + 98802 x536 + 100502 x537 + 90005 x538 + 90551 x539
       + 107045 x540 + 94723 x541 + 103424 x542 + 102521 x543 + 108673 x544
       + 102686 x545 + 99466 x546 + 107912 x547 + 96201 x548 + 106838 x549
       + 90504 x550 + 92851 x551 + 93880 x552 + 97513 x553 + 90322 x554
       + 93961 x555 + 108112 x556 + 92212 x557 + 98894 x558 + 99389 x559
       + 107688 x560 + 91356 x561 + 104602 x562 + 108920 x563 + 91739 x564
       + 90313 x565 + 101494 x566 + 93378 x567 + 94882 x568 + 95202 x569
       + 90672 x570 + 95694 x571 + 103319 x572 + 94839 x573 + 95620 x574
       + 93650 x575 + 101581 x576 + 96670 x577 + 97485 x578 + 102645 x579
       + 101214 x580 + 100668 x581 + 108253 x582 + 95730 x583 + 99890 x584
       + 101890 x585 + 107290 x586 + 97723 x587 + 102266 x588 + 99762 x589
       + 109821 x590 + 90388 x591 + 102377 x592 + 90146 x593 + 94735 x594
       + 106456 x595 + 101427 x596 + 104865 x597 + 93478 x598 + 91709 x599
       + 181120 x600 + 43662 x601 + 41752 x602 + 43414 x603 + 36366 x604
       + 37899 x605 + 37046 x606 + 40691 x607 + 39929 x608 + 37686 x609
       + 43047 x610 + 36160 x611 + 38263 x612 + 40526 x613 + 39602 x614
       + 42532 x615 + 38464 x616 + 36217 x617 + 43944 x618 + 40887 x619
       + 40563 x620 + 43401 x621 + 43575 x622 + 37033 x623 + 36764 x624
       + 41638 x625 + 43402 x626 + 36409 x627 + 39718 x628 + 40460 x629
       + 36716 x630 + 38134 x631 + 39040 x632 + 38369 x633 + 40555 x634
       + 39782 x635 + 36686 x636 + 41108 x637 + 37783 x638 + 36104 x639
       + 41902 x640 + 37579 x641 + 36711 x642 + 39424 x643 + 43363 x644
       + 41606 x645 + 38341 x646 + 38588 x647 + 39758 x648 + 38329 x649
       + 43341 x650 + 43303 x651 + 40447 x652 + 37304 x653 + 39587 x654
       + 43410 x655 + 40941 x656 + 38488 x657 + 42648 x658 + 40058 x659
       + 49545 x660
Subject To
 c1:   - x8 - x25 + x30 - x31 + x34 + x35 + x36 - x44 - x45 - x47 + x48  = 0
 c2:   - x68 - x85 + x90 - x91 + x94 + x95 + x96 - x104 - x105 - x107 + x108
        = 0
 c3:   - x128 - x145 + x150 - x151 + x154 + x155 + x156 - x164 - x165 - x167
       + x168  = 0
 c4:   - x188 - x205 + x210 - x211 + x214 + x215 + x216 - x224 - x225 - x227
       + x228  = 0
 c5:   - x248 - x265 + x270 - x271 + x274 + x275 + x276 - x284 - x285 - x287
       + x288  = 0
 c6:   - x308 - x325 + x330 - x331 + x334 + x335 + x336 - x344 - x345 - x347
       + x348  = 0
 c7:   - x368 - x385 + x390 - x391 + x394 + x395 + x396 - x404 - x405 - x407
       + x408  = 0
 c8:   - x428 - x445 + x450 - x451 + x454 + x455 + x456 - x464 - x465 - x467
       + x468  = 0
 c9:   - x488 - x505 + x510 - x511 + x514 + x515 + x516 - x524 - x525 - x527
       + x528  = 0
 c10:  - x548 - x565 + x570 - x571 + x574 + x575 + x576 - x584 - x585 - x587
       + x588  = 0
 c11:  x12 - x26 - x27 + x31  = 0
 c12:  x72 - x86 - x87 + x91  = 0
 c13:  x132 - x146 - x147 + x151  = 0
 c14:  x192 - x206 - x207 + x211  = 0
 c15:  x252 - x266 - x267 + x271  = 0
 c16:  x312 - x326 - x327 + x331  = 0
 c17:  x372 - x386 - x387 + x391  = 0
 c18:  x432 - x446 - x447 + x451  = 0
 c19:  x492 - x506 - x507 + x511  = 0
 c20:  x552 - x566 - x567 + x571  = 0
 c21:  x9 + x16 - x19 + x21 - x23 - x36  = 0
 c22:  x69 + x76 - x79 + x81 - x83 - x96  = 1
 c23:  x129 + x136 - x139 + x141 - x143 - x156  = 0
 c24:  x189 + x196 - x199 + x201 - x203 - x216  = 0
 c25:  x249 + x256 - x259 + x261 - x263 - x276  = 0
 c26:  x309 + x316 - x319 + x321 - x323 - x336  = 0
 c27:  x369 + x376 - x379 + x381 - x383 - x396  = 0
 c28:  x429 + x436 - x439 + x441 - x443 - x456  = 0
 c29:  x489 + x496 - x499 + x501 - x503 - x516  = 0
 c30:  x549 + x556 - x559 + x561 - x563 - x576  = 0
 c31:  x8 - x14 - x24 + x32 - x35 + x39 - x46 + x51 - x56 - x59  = 1
 c32:  x68 - x74 - x84 + x92 - x95 + x99 - x106 + x111 - x116 - x119  = 0
 c33:  x128 - x134 - x144 + x152 - x155 + x159 - x166 + x171 - x176 - x179  = 0
 c34:  x188 - x194 - x204 + x212 - x215 + x219 - x226 + x231 - x236 - x239  = 0
 c35:  x248 - x254 - x264 + x272 - x275 + x279 - x286 + x291 - x296 - x299  = 0
 c36:  x308 - x314 - x324 + x332 - x335 + x339 - x346 + x351 - x356 - x359  = 0
 c37:  x368 - x374 - x384 + x392 - x395 + x399 - x406 + x411 - x416 - x419  = 0
 c38:  x428 - x434 - x444 + x452 - x455 + x459 - x466 + x471 - x476 - x479  = 0
 c39:  x488 - x494 - x504 + x512 - x515 + x519 - x526 + x531 - x536 - x539
        = -1
 c40:  x548 - x554 - x564 + x572 - x575 + x579 - x586 + x591 - x596 - x599  = 0
 c41:  - x2 - x4 - x9 - x13 + x29 - x34 - x43 + x44 + x54  = 0
 c42:  - x62 - x64 - x69 - x73 + x89 - x94 - x103 + x104 + x114  = 0
 c43:  - x122 - x124 - x129 - x133 + x149 - x154 - x163 + x164 + x174  = 1
 c44:  - x182 - x184 - x189 - x193 + x209 - x214 - x223 + x224 + x234  = 0
 c45:  - x242 - x244 - x249 - x253 + x269 - x274 - x283 + x284 + x294  = 0
 c46:  - x302 - x304 - x309 - x313 + x329 - x334 - x343 + x344 + x354  = 0
 c47:  - x362 - x364 - x369 - x373 + x389 - x394 - x403 + x404 + x414  = 0
 c48:  - x422 - x424 - x429 - x433 + x449 - x454 - x463 + x464 + x474  = 0
 c49:  - x482 - x484 - x489 - x493 + x509 - x514 - x523 + x524 + x534  = 0
 c50:  - x542 - x544 - x549 - x553 + x569 - x574 - x583 + x584 + x594  = 0
 c51:  - x5 + x11 + x13 + x18 + x27 - x28 + x41 + x46  = 0
 c52:  - x65 + x71 + x73 + x78 + x87 - x88 + x101 + x106  = 0
 c53:  - x125 + x131 + x133 + x138 + x147 - x148 + x161 + x166  = 0
 c54:  - x185 + x191 + x193 + x198 + x207 - x208 + x221 + x226  = 0
 c55:  - x245 + x251 + x253 + x258 + x267 - x268 + x281 + x286  = 0
 c56:  - x305 + x311 + x313 + x318 + x327 - x328 + x341 + x346  = 0
 c57:  - x365 + x371 + x373 + x378 + x387 - x388 + x401 + x406  = 0
 c58:  - x425 + x431 + x433 + x438 + x447 - x448 + x461 + x466  = 0
 c59:  - x485 + x491 + x493 + x498 + x507 - x508 + x521 + x526  = 0
 c60:  - x545 + x551 + x553 + x558 + x567 - x568 + x581 + x586  = 0
 c61:  x2 - x3 + x6 - x7 + x15 - x21 + x28 + x37 - x40 + x47 - x58  = 0
 c62:  x62 - x63 + x66 - x67 + x75 - x81 + x88 + x97 - x100 + x107 - x118  = 0
 c63:  x122 - x123 + x126 - x127 + x135 - x141 + x148 + x157 - x160 + x167
       - x178  = 0
 c64:  x182 - x183 + x186 - x187 + x195 - x201 + x208 + x217 - x220 + x227
       - x238  = 0
 c65:  x242 - x243 + x246 - x247 + x255 - x261 + x268 + x277 - x280 + x287
       - x298  = -1
 c66:  x302 - x303 + x306 - x307 + x315 - x321 + x328 + x337 - x340 + x347
       - x358  = 0
 c67:  x362 - x363 + x366 - x367 + x375 - x381 + x388 + x397 - x400 + x407
       - x418  = 1
 c68:  x422 - x423 + x426 - x427 + x435 - x441 + x448 + x457 - x460 + x467
       - x478  = 0
 c69:  x482 - x483 + x486 - x487 + x495 - x501 + x508 + x517 - x520 + x527
       - x538  = 1
 c70:  x542 - x543 + x546 - x547 + x555 - x561 + x568 + x577 - x580 + x587
       - x598  = 0
 c71:  - x10 - x15 + x45 - x50 + x59 + x60  = 0
 c72:  - x70 - x75 + x105 - x110 + x119 + x120  = 0
 c73:  - x130 - x135 + x165 - x170 + x179 + x180  = -1
 c74:  - x190 - x195 + x225 - x230 + x239 + x240  = 1
 c75:  - x250 - x255 + x285 - x290 + x299 + x300  = 0
 c76:  - x310 - x315 + x345 - x350 + x359 + x360  = 0
 c77:  - x370 - x375 + x405 - x410 + x419 + x420  = -1
 c78:  - x430 - x435 + x465 - x470 + x479 + x480  = 0
 c79:  - x490 - x495 + x525 - x530 + x539 + x540  = 0
 c80:  - x550 - x555 + x585 - x590 + x599 + x600  = 0
 c81:  x1 - x12 + x20 - x22 + x33 - x37 - x54 + x55  = 0
 c82:  x61 - x72 + x80 - x82 + x93 - x97 - x114 + x115  = 0
 c83:  x121 - x132 + x140 - x142 + x153 - x157 - x174 + x175  = 0
 c84:  x181 - x192 + x200 - x202 + x213 - x217 - x234 + x235  = -1
 c85:  x241 - x252 + x260 - x262 + x273 - x277 - x294 + x295  = 0
 c86:  x301 - x312 + x320 - x322 + x333 - x337 - x354 + x355  = -1
 c87:  x361 - x372 + x380 - x382 + x393 - x397 - x414 + x415  = 0
 c88:  x421 - x432 + x440 - x442 + x453 - x457 - x474 + x475  = 0
 c89:  x481 - x492 + x500 - x502 + x513 - x517 - x534 + x535  = 0
 c90:  x541 - x552 + x560 - x562 + x573 - x577 - x594 + x595  = 0
 c91:  - x1 + x4 + x10 - x11 + x17 - x32 - x38 + x49 - x53  = 0
 c92:  - x61 + x64 + x70 - x71 + x77 - x92 - x98 + x109 - x113  = -1
 c93:  - x121 + x124 + x130 - x131 + x137 - x152 - x158 + x169 - x173  = 0
 c94:  - x181 + x184 + x190 - x191 + x197 - x212 - x218 + x229 - x233  = 0
 c95:  - x241 + x244 + x250 - x251 + x257 - x272 - x278 + x289 - x293  = 1
 c96:  - x301 + x304 + x310 - x311 + x317 - x332 - x338 + x349 - x353  = 0
 c97:  - x361 + x364 + x370 - x371 + x377 - x392 - x398 + x409 - x413  = 0
 c98:  - x421 + x424 + x430 - x431 + x437 - x452 - x458 + x469 - x473  = 1
 c99:  - x481 + x484 + x490 - x491 + x497 - x512 - x518 + x529 - x533  = 0
 c100: - x541 + x544 + x550 - x551 + x557 - x572 - x578 + x589 - x593  = -1
 c101: - x42 - x48 - x49 + x50 - x55 + x56 + x58  = 0
 c102: - x102 - x108 - x109 + x110 - x115 + x116 + x118  = 0
 c103: - x162 - x168 - x169 + x170 - x175 + x176 + x178  = 0
 c104: - x222 - x228 - x229 + x230 - x235 + x236 + x238  = 0
 c105: - x282 - x288 - x289 + x290 - x295 + x296 + x298  = 0
 c106: - x342 - x348 - x349 + x350 - x355 + x356 + x358  = 0
 c107: - x402 - x408 - x409 + x410 - x415 + x416 + x418  = 0
 c108: - x462 - x468 - x469 + x470 - x475 + x476 + x478  = -1
 c109: - x522 - x528 - x529 + x530 - x535 + x536 + x538  = 0
 c110: - x582 - x588 - x589 + x590 - x595 + x596 + x598  = 0
 c111: x14 - x29 + x38 - x41 + x42 + x43 - x52 - x60  = -1
 c112: x74 - x89 + x98 - x101 + x102 + x103 - x112 - x120  = 0
 c113: x134 - x149 + x158 - x161 + x162 + x163 - x172 - x180  = 0
 c114: x194 - x209 + x218 - x221 + x222 + x223 - x232 - x240  = 0
 c115: x254 - x269 + x278 - x281 + x282 + x283 - x292 - x300  = 0
 c116: x314 - x329 + x338 - x341 + x342 + x343 - x352 - x360  = 0
 c117: x374 - x389 + x398 - x401 + x402 + x403 - x412 - x420  = 0
 c118: x434 - x449 + x458 - x461 + x462 + x463 - x472 - x480  = 0
 c119: x494 - x509 + x518 - x521 + x522 + x523 - x532 - x540  = 0
 c120: x554 - x569 + x578 - x581 + x582 + x583 - x592 - x600  = 1
 c121: - x20 + x24 + x25 + x40 + x53  = 0
 c122: - x80 + x84 + x85 + x100 + x113  = 0
 c123: - x140 + x144 + x145 + x160 + x173  = 0
 c124: - x200 + x204 + x205 + x220 + x233  = 0
 c125: - x260 + x264 + x265 + x280 + x293  = 0
 c126: - x320 + x324 + x325 + x340 + x353  = 0
 c127: - x380 + x384 + x385 + x400 + x413  = 0
 c128: - x440 + x444 + x445 + x460 + x473  = 0
 c129: - x500 + x504 + x505 + x520 + x533  = 0
 c130: - x560 + x564 + x565 + x580 + x593  = 0
 c131: x3 - x16 + x23 + x26 - x33 - x51 + x52 - x57  = 0
 c132: x63 - x76 + x83 + x86 - x93 - x111 + x112 - x117  = 0
 c133: x123 - x136 + x143 + x146 - x153 - x171 + x172 - x177  = 0
 c134: x183 - x196 + x203 + x206 - x213 - x231 + x232 - x237  = 0
 c135: x243 - x256 + x263 + x266 - x273 - x291 + x292 - x297  = 0
 c136: x303 - x316 + x323 + x326 - x333 - x351 + x352 - x357  = 1
 c137: x363 - x376 + x383 + x386 - x393 - x411 + x412 - x417  = 0
 c138: x423 - x436 + x443 + x446 - x453 - x471 + x472 - x477  = 0
 c139: x483 - x496 + x503 + x506 - x513 - x531 + x532 - x537  = 0
 c140: x543 - x556 + x563 + x566 - x573 - x591 + x592 - x597  = 0
 c141: x5 - x6 + x7 - x17 - x18 + x19 + x22 - x30 - x39 + x57  = 0
 c142: x65 - x66 + x67 - x77 - x78 + x79 + x82 - x90 - x99 + x117  = 0
 c143: x125 - x126 + x127 - x137 - x138 + x139 + x142 - x150 - x159 + x177  = 0
 c144: x185 - x186 + x187 - x197 - x198 + x199 + x202 - x210 - x219 + x237  = 0
 c145: x245 - x246 + x247 - x257 - x258 + x259 + x262 - x270 - x279 + x297  = 0
 c146: x305 - x306 + x307 - x317 - x318 + x319 + x322 - x330 - x339 + x357  = 0
 c147: x365 - x366 + x367 - x377 - x378 + x379 + x382 - x390 - x399 + x417  = 0
 c148: x425 - x426 + x427 - x437 - x438 + x439 + x442 - x450 - x459 + x477  = 0
 c149: x485 - x486 + x487 - x497 - x498 + x499 + x502 - x510 - x519 + x537  = 0
 c150: x545 - x546 + x547 - x557 - x558 + x559 + x562 - x570 - x579 + x597  = 0
 c151: 4 x1 + 4 x61 + 4 x121 + 4 x181 + 4 x241 + 4 x301 + 4 x361 + 4 x421
       + 4 x481 + 4 x541 - 5 x601 <= 0
 c152: 4 x2 + 4 x62 + 4 x122 + 4 x182 + 4 x242 + 4 x302 + 4 x362 + 4 x422
       + 4 x482 + 4 x542 - 5 x602 <= 0
 c153: 4 x3 + 4 x63 + 4 x123 + 4 x183 + 4 x243 + 4 x303 + 4 x363 + 4 x423
       + 4 x483 + 4 x543 - 5 x603 <= 0
 c154: 4 x4 + 4 x64 + 4 x124 + 4 x184 + 4 x244 + 4 x304 + 4 x364 + 4 x424
       + 4 x484 + 4 x544 - 5 x604 <= 0
 c155: 4 x5 + 4 x65 + 4 x125 + 4 x185 + 4 x245 + 4 x305 + 4 x365 + 4 x425
       + 4 x485 + 4 x545 - 5 x605 <= 0
 c156: 4 x6 + 4 x66 + 4 x126 + 4 x186 + 4 x246 + 4 x306 + 4 x366 + 4 x426
       + 4 x486 + 4 x546 - 5 x606 <= 0
 c157: 4 x7 + 4 x67 + 4 x127 + 4 x187 + 4 x247 + 4 x307 + 4 x367 + 4 x427
       + 4 x487 + 4 x547 - 5 x607 <= 0
 c158: 4 x8 + 4 x68 + 4 x128 + 4 x188 + 4 x248 + 4 x308 + 4 x368 + 4 x428
       + 4 x488 + 4 x548 - 5 x608 <= 0
 c159: 4 x9 + 4 x69 + 4 x129 + 4 x189 + 4 x249 + 4 x309 + 4 x369 + 4 x429
       + 4 x489 + 4 x549 - 5 x609 <= 0
 c160: 4 x10 + 4 x70 + 4 x130 + 4 x190 + 4 x250 + 4 x310 + 4 x370 + 4 x430
       + 4 x490 + 4 x550 - 5 x610 <= 0
 c161: 4 x11 + 4 x71 + 4 x131 + 4 x191 + 4 x251 + 4 x311 + 4 x371 + 4 x431
       + 4 x491 + 4 x551 - 5 x611 <= 0
 c162: 4 x12 + 4 x72 + 4 x132 + 4 x192 + 4 x252 + 4 x312 + 4 x372 + 4 x432
       + 4 x492 + 4 x552 - 5 x612 <= 0
 c163: 4 x13 + 4 x73 + 4 x133 + 4 x193 + 4 x253 + 4 x313 + 4 x373 + 4 x433
       + 4 x493 + 4 x553 - 5 x613 <= 0
 c164: 4 x14 + 4 x74 + 4 x134 + 4 x194 + 4 x254 + 4 x314 + 4 x374 + 4 x434
       + 4 x494 + 4 x554 - 5 x614 <= 0
 c165: 4 x15 + 4 x75 + 4 x135 + 4 x195 + 4 x255 + 4 x315 + 4 x375 + 4 x435
       + 4 x495 + 4 x555 - 5 x615 <= 0
 c166: 4 x16 + 4 x76 + 4 x136 + 4 x196 + 4 x256 + 4 x316 + 4 x376 + 4 x436
       + 4 x496 + 4 x556 - 5 x616 <= 0
 c167: 4 x17 + 4 x77 + 4 x137 + 4 x197 + 4 x257 + 4 x317 + 4 x377 + 4 x437
       + 4 x497 + 4 x557 - 5 x617 <= 0
 c168: 4 x18 + 4 x78 + 4 x138 + 4 x198 + 4 x258 + 4 x318 + 4 x378 + 4 x438
       + 4 x498 + 4 x558 - 5 x618 <= 0
 c169: 4 x19 + 4 x79 + 4 x139 + 4 x199 + 4 x259 + 4 x319 + 4 x379 + 4 x439
       + 4 x499 + 4 x559 - 5 x619 <= 0
 c170: 4 x20 + 4 x80 + 4 x140 + 4 x200 + 4 x260 + 4 x320 + 4 x380 + 4 x440
       + 4 x500 + 4 x560 - 5 x620 <= 0
 c171: 4 x21 + 4 x81 + 4 x141 + 4 x201 + 4 x261 + 4 x321 + 4 x381 + 4 x441
       + 4 x501 + 4 x561 - 5 x621 <= 0
 c172: 4 x22 + 4 x82 + 4 x142 + 4 x202 + 4 x262 + 4 x322 + 4 x382 + 4 x442
       + 4 x502 + 4 x562 - 5 x622 <= 0
 c173: 4 x23 + 4 x83 + 4 x143 + 4 x203 + 4 x263 + 4 x323 + 4 x383 + 4 x443
       + 4 x503 + 4 x563 - 5 x623 <= 0
 c174: 4 x24 + 4 x84 + 4 x144 + 4 x204 + 4 x264 + 4 x324 + 4 x384 + 4 x444
       + 4 x504 + 4 x564 - 5 x624 <= 0
 c175: 4 x25 + 4 x85 + 4 x145 + 4 x205 + 4 x265 + 4 x325 + 4 x385 + 4 x445
       + 4 x505 + 4 x565 - 5 x625 <= 0
 c176: 4 x26 + 4 x86 + 4 x146 + 4 x206 + 4 x266 + 4 x326 + 4 x386 + 4 x446
       + 4 x506 + 4 x566 - 5 x626 <= 0
 c177: 4 x27 + 4 x87 + 4 x147 + 4 x207 + 4 x267 + 4 x327 + 4 x387 + 4 x447
       + 4 x507 + 4 x567 - 5 x627 <= 0
 c178: 4 x28 + 4 x88 + 4 x148 + 4 x208 + 4 x268 + 4 x328 + 4 x388 + 4 x448
       + 4 x508 + 4 x568 - 5 x628 <= 0
 c179: 4 x29 + 4 x89 + 4 x149 + 4 x209 + 4 x269 + 4 x329 + 4 x389 + 4 x449
       + 4 x509 + 4 x569 - 5 x629 <= 0
 c180: 4 x30 + 4 x90 + 4 x150 + 4 x210 + 4 x270 + 4 x330 + 4 x390 + 4 x450
       + 4 x510 + 4 x570 - 5 x630 <= 0
 c181: 4 x31 + 4 x91 + 4 x151 + 4 x211 + 4 x271 + 4 x331 + 4 x391 + 4 x451
       + 4 x511 + 4 x571 - 5 x631 <= 0
 c182: 4 x32 + 4 x92 + 4 x152 + 4 x212 + 4 x272 + 4 x332 + 4 x392 + 4 x452
       + 4 x512 + 4 x572 - 5 x632 <= 0
 c183: 4 x33 + 4 x93 + 4 x153 + 4 x213 + 4 x273 + 4 x333 + 4 x393 + 4 x453
       + 4 x513 + 4 x573 - 5 x633 <= 0
 c184: 4 x34 + 4 x94 + 4 x154 + 4 x214 + 4 x274 + 4 x334 + 4 x394 + 4 x454
       + 4 x514 + 4 x574 - 5 x634 <= 0
 c185: 4 x35 + 4 x95 + 4 x155 + 4 x215 + 4 x275 + 4 x335 + 4 x395 + 4 x455
       + 4 x515 + 4 x575 - 5 x635 <= 0
 c186: 4 x36 + 4 x96 + 4 x156 + 4 x216 + 4 x276 + 4 x336 + 4 x396 + 4 x456
       + 4 x516 + 4 x576 - 5 x636 <= 0
 c187: 4 x37 + 4 x97 + 4 x157 + 4 x217 + 4 x277 + 4 x337 + 4 x397 + 4 x457
       + 4 x517 + 4 x577 - 5 x637 <= 0
 c188: 4 x38 + 4 x98 + 4 x158 + 4 x218 + 4 x278 + 4 x338 + 4 x398 + 4 x458
       + 4 x518 + 4 x578 - 5 x638 <= 0
 c189: 4 x39 + 4 x99 + 4 x159 + 4 x219 + 4 x279 + 4 x339 + 4 x399 + 4 x459
       + 4 x519 + 4 x579 - 5 x639 <= 0
 c190: 4 x40 + 4 x100 + 4 x160 + 4 x220 + 4 x280 + 4 x340 + 4 x400 + 4 x460
       + 4 x520 + 4 x580 - 5 x640 <= 0
 c191: 4 x41 + 4 x101 + 4 x161 + 4 x221 + 4 x281 + 4 x341 + 4 x401 + 4 x461
       + 4 x521 + 4 x581 - 5 x641 <= 0
 c192: 4 x42 + 4 x102 + 4 x162 + 4 x222 + 4 x282 + 4 x342 + 4 x402 + 4 x462
       + 4 x522 + 4 x582 - 5 x642 <= 0
 c193: 4 x43 + 4 x103 + 4 x163 + 4 x223 + 4 x283 + 4 x343 + 4 x403 + 4 x463
       + 4 x523 + 4 x583 - 5 x643 <= 0
 c194: 4 x44 + 4 x104 + 4 x164 + 4 x224 + 4 x284 + 4 x344 + 4 x404 + 4 x464
       + 4 x524 + 4 x584 - 5 x644 <= 0
 c195: 4 x45 + 4 x105 + 4 x165 + 4 x225 + 4 x285 + 4 x345 + 4 x405 + 4 x465
       + 4 x525 + 4 x585 - 5 x645 <= 0
 c196: 4 x46 + 4 x106 + 4 x166 + 4 x226 + 4 x286 + 4 x346 + 4 x406 + 4 x466
       + 4 x526 + 4 x586 - 5 x646 <= 0
 c197: 4 x47 + 4 x107 + 4 x167 + 4 x227 + 4 x287 + 4 x347 + 4 x407 + 4 x467
       + 4 x527 + 4 x587 - 5 x647 <= 0
 c198: 4 x48 + 4 x108 + 4 x168 + 4 x228 + 4 x288 + 4 x348 + 4 x408 + 4 x468
       + 4 x528 + 4 x588 - 5 x648 <= 0
 c199: 4 x49 + 4 x109 + 4 x169 + 4 x229 + 4 x289 + 4 x349 + 4 x409 + 4 x469
       + 4 x529 + 4 x589 - 5 x649 <= 0
 c200: 4 x50 + 4 x110 + 4 x170 + 4 x230 + 4 x290 + 4 x350 + 4 x410 + 4 x470
       + 4 x530 + 4 x590 - 5 x650 <= 0
 c201: 4 x51 + 4 x111 + 4 x171 + 4 x231 + 4 x291 + 4 x351 + 4 x411 + 4 x471
       + 4 x531 + 4 x591 - 5 x651 <= 0
 c202: 4 x52 + 4 x112 + 4 x172 + 4 x232 + 4 x292 + 4 x352 + 4 x412 + 4 x472
       + 4 x532 + 4 x592 - 5 x652 <= 0
 c203: 4 x53 + 4 x113 + 4 x173 + 4 x233 + 4 x293 + 4 x353 + 4 x413 + 4 x473
       + 4 x533 + 4 x593 - 5 x653 <= 0
 c204: 4 x54 + 4 x114 + 4 x174 + 4 x234 + 4 x294 + 4 x354 + 4 x414 + 4 x474
       + 4 x534 + 4 x594 - 5 x654 <= 0
 c205: 4 x55 + 4 x115 + 4 x175 + 4 x235 + 4 x295 + 4 x355 + 4 x415 + 4 x475
       + 4 x535 + 4 x595 - 5 x655 <= 0
 c206: 4 x56 + 4 x116 + 4 x176 + 4 x236 + 4 x296 + 4 x356 + 4 x416 + 4 x476
       + 4 x536 + 4 x596 - 5 x656 <= 0
 c207: 4 x57 + 4 x117 + 4 x177 + 4 x237 + 4 x297 + 4 x357 + 4 x417 + 4 x477
       + 4 x537 + 4 x597 - 5 x657 <= 0
 c208: 4 x58 + 4 x118 + 4 x178 + 4 x238 + 4 x298 + 4 x358 + 4 x418 + 4 x478
       + 4 x538 + 4 x598 - 5 x658 <= 0
 c209: 4 x59 + 4 x119 + 4 x179 + 4 x239 + 4 x299 + 4 x359 + 4 x419 + 4 x479
       + 4 x539 + 4 x599 - 5 x659 <= 0
 c210: 4 x60 + 4 x120 + 4 x180 + 4 x240 + 4 x300 + 4 x360 + 4 x420 + 4 x480
       + 4 x540 + 4 x600 - 5 x660 <= 0
Bounds
 0 <= x1 <= 1
 0 <= x2 <= 1
 0 <= x3 <= 1
 0 <= x4 <= 1
 0 <= x5 <= 1
 0 <= x6 <= 1
 0 <= x7 <= 1
 0 <= x8 <= 1
 0 <= x9 <= 1
 0 <= x10 <= 1
 0 <= x11 <= 1
 0 <= x12 <= 1
 0 <= x13 <= 1
 0 <= x14 <= 1
 0 <= x15 <= 1
 0 <= x16 <= 1
 0 <= x17 <= 1
 0 <= x18 <= 1
 0 <= x19 <= 1
 0 <= x20 <= 1
 0 <= x21 <= 1
 0 <= x22 <= 1
 0 <= x23 <= 1
 0 <= x24 <= 1
 0 <= x25 <= 1
 0 <= x26 <= 1
 0 <= x27 <= 1
 0 <= x28 <= 1
 0 <= x29 <= 1
 0 <= x30 <= 1
 0 <= x31 <= 1
 0 <= x32 <= 1
 0 <= x33 <= 1
 0 <= x34 <= 1
 0 <= x35 <= 1
 0 <= x36 <= 1
 0 <= x37 <= 1
 0 <= x38 <= 1
 0 <= x39 <= 1
 0 <= x40 <= 1
 0 <= x41 <= 1
 0 <= x42 <= 1
 0 <= x43 <= 1
 0 <= x44 <= 1
 0 <= x45 <= 1
 0 <= x46 <= 1
 0 <= x47 <= 1
 0 <= x48 <= 1
 0 <= x49 <= 1
 0 <= x50 <= 1
 0 <= x51 <= 1
 0 <= x52 <= 1
 0 <= x53 <= 1
 0 <= x54 <= 1
 0 <= x55 <= 1
 0 <= x56 <= 1
 0 <= x57 <= 1
 0 <= x58 <= 1
 0 <= x59 <= 1
 0 <= x60 <= 1
 0 <= x61 <= 1
 0 <= x62 <= 1
 0 <= x63 <= 1
 0 <= x64 <= 1
 0 <= x65 <= 1
 0 <= x66 <= 1
 0 <= x67 <= 1
 0 <= x68 <= 1
 0 <= x69 <= 1
 0 <= x70 <= 1
 0 <= x71 <= 1
 0 <= x72 <= 1
 0 <= x73 <= 1
 0 <= x74 <= 1
 0 <= x75 <= 1
 0 <= x76 <= 1
 0 <= x77 <= 1
 0 <= x78 <= 1
 0 <= x79 <= 1
 0 <= x80 <= 1
 0 <= x81 <= 1
 0 <= x82 <= 1
 0 <= x83 <= 1
 0 <= x84 <= 1
 0 <= x85 <= 1
 0 <= x86 <= 1
 0 <= x87 <= 1
 0 <= x88 <= 1
 0 <= x89 <= 1
 0 <= x90 <= 1
 0 <= x91 <= 1
 0 <= x92 <= 1
 0 <= x93 <= 1
 0 <= x94 <= 1
 0 <= x95 <= 1
 0 <= x96 <= 1
 0 <= x97 <= 1
 0 <= x98 <= 1
 0 <= x99 <= 1
 0 <= x100 <= 1
 0 <= x101 <= 1
 0 <= x102 <= 1
 0 <= x103 <= 1
 0 <= x104 <= 1
 0 <= x105 <= 1
 0 <= x106 <= 1
 0 <= x107 <= 1
 0 <= x108 <= 1
 0 <= x109 <= 1
 0 <= x110 <= 1
 0 <= x111 <= 1
 0 <= x112 <= 1
 0 <= x113 <= 1
 0 <= x114 <= 1
 0 <= x115 <= 1
 0 <= x116 <= 1
 0 <= x117 <= 1
 0 <= x118 <= 1
 0 <= x119 <= 1
 0 <= x120 <= 1
 0 <= x121 <= 1
 0 <= x122 <= 1
 0 <= x123 <= 1
 0 <= x124 <= 1
 0 <= x125 <= 1
 0 <= x126 <= 1
 0 <= x127 <= 1
 0 <= x128 <= 1
 0 <= x129 <= 1
 0 <= x130 <= 1
 0 <= x131 <= 1
 0 <= x132 <= 1
 0 <= x133 <= 1
 0 <= x134 <= 1
 0 <= x135 <= 1
 0 <= x136 <= 1
 0 <= x137 <= 1
 0 <= x138 <= 1
 0 <= x139 <= 1
 0 <= x140 <= 1
 0 <= x141 <= 1
 0 <= x142 <= 1
 0 <= x143 <= 1
 0 <= x144 <= 1
 0 <= x145 <= 1
 0 <= x146 <= 1
 0 <= x147 <= 1
 0 <= x148 <= 1
 0 <= x149 <= 1
 0 <= x150 <= 1
 0 <= x151 <= 1
 0 <= x152 <= 1
 0 <= x153 <= 1
 0 <= x154 <= 1
 0 <= x155 <= 1
 0 <= x156 <= 1
 0 <= x157 <= 1
 0 <= x158 <= 1
 0 <= x159 <= 1
 0 <= x160 <= 1
 0 <= x161 <= 1
 0 <= x162 <= 1
 0 <= x163 <= 1
 0 <= x164 <= 1
 0 <= x165 <= 1
 0 <= x166 <= 1
 0 <= x167 <= 1
 0 <= x168 <= 1
 0 <= x169 <= 1
 0 <= x170 <= 1
 0 <= x171 <= 1
 0 <= x172 <= 1
 0 <= x173 <= 1
 0 <= x174 <= 1
 0 <= x175 <= 1
 0 <= x176 <= 1
 0 <= x177 <= 1
 0 <= x178 <= 1
 0 <= x179 <= 1
 0 <= x180 <= 1
 0 <= x181 <= 1
 0 <= x182 <= 1
 0 <= x183 <= 1
 0 <= x184 <= 1
 0 <= x185 <= 1
 0 <= x186 <= 1
 0 <= x187 <= 1
 0 <= x188 <= 1
 0 <= x189 <= 1
 0 <= x190 <= 1
 0 <= x191 <= 1
 0 <= x192 <= 1
 0 <= x193 <= 1
 0 <= x194 <= 1
 0 <= x195 <= 1
 0 <= x196 <= 1
 0 <= x197 <= 1
 0 <= x198 <= 1
 0 <= x199 <= 1
 0 <= x200 <= 1
 0 <= x201 <= 1
 0 <= x202 <= 1
 0 <= x203 <= 1
 0 <= x204 <= 1
 0 <= x205 <= 1
 0 <= x206 <= 1
 0 <= x207 <= 1
 0 <= x208 <= 1
 0 <= x209 <= 1
 0 <= x210 <= 1
 0 <= x211 <= 1
 0 <= x212 <= 1
 0 <= x213 <= 1
 0 <= x214 <= 1
 0 <= x215 <= 1
 0 <= x216 <= 1
 0 <= x217 <= 1
 0 <= x218 <= 1
 0 <= x219 <= 1
 0 <= x220 <= 1
 0 <= x221 <= 1
 0 <= x222 <= 1
 0 <= x223 <= 1
 0 <= x224 <= 1
 0 <= x225 <= 1
 0 <= x226 <= 1
 0 <= x227 <= 1
 0 <= x228 <= 1
 0 <= x229 <= 1
 0 <= x230 <= 1
 0 <= x231 <= 1
 0 <= x232 <= 1
 0 <= x233 <= 1
 0 <= x234 <= 1
 0 <= x235 <= 1
 0 <= x236 <= 1
 0 <= x237 <= 1
 0 <= x238 <= 1
 0 <= x239 <= 1
 0 <= x240 <= 1
 0 <= x241 <= 1
 0 <= x242 <= 1
 0 <= x243 <= 1
 0 <= x244 <= 1
 0 <= x245 <= 1
 0 <= x246 <= 1
 0 <= x247 <= 1
 0 <= x248 <= 1
 0 <= x249 <= 1
 0 <= x250 <= 1
 0 <= x251 <= 1
 0 <= x252 <= 1
 0 <= x253 <= 1
 0 <= x254 <= 1
 0 <= x255 <= 1
 0 <= x256 <= 1
 0 <= x257 <= 1
 0 <= x258 <= 1
 0 <= x259 <= 1
 0 <= x260 <= 1
 0 <= x261 <= 1
 0 <= x262 <= 1
 0 <= x263 <= 1
 0 <= x264 <= 1
 0 <= x265 <= 1
 0 <= x266 <= 1
 0 <= x267 <= 1
 0 <= x268 <= 1
 0 <= x269 <= 1
 0 <= x270 <= 1
 0 <= x271 <= 1
 0 <= x272 <= 1
 0 <= x273 <= 1
 0 <= x274 <= 1
 0 <= x275 <= 1
 0 <= x276 <= 1
 0 <= x277 <= 1
 0 <= x278 <= 1
 0 <= x279 <= 1
 0 <= x280 <= 1
 0 <= x281 <= 1
 0 <= x282 <= 1
 0 <= x283 <= 1
 0 <= x284 <= 1
 0 <= x285 <= 1
 0 <= x286 <= 1
 0 <= x287 <= 1
 0 <= x288 <= 1
 0 <= x289 <= 1
 0 <= x290 <= 1
 0 <= x291 <= 1
 0 <= x292 <= 1
 0 <= x293 <= 1
 0 <= x294 <= 1
 0 <= x295 <= 1
 0 <= x296 <= 1
 0 <= x297 <= 1
 0 <= x298 <= 1
 0 <= x299 <= 1
 0 <= x300 <= 1
 0 <= x301 <= 1
 0 <= x302 <= 1
 0 <= x303 <= 1
 0 <= x304 <= 1
 0 <= x305 <= 1
 0 <= x306 <= 1
 0 <= x307 <= 1
 0 <= x308 <= 1
 0 <= x309 <= 1
 0 <= x310 <= 1
 0 <= x311 <= 1
 0 <= x312 <= 1
 0 <= x313 <= 1
 0 <= x314 <= 1
 0 <= x315 <= 1
 0 <= x316 <= 1
 0 <= x317 <= 1
 0 <= x318 <= 1
 0 <= x319 <= 1
 0 <= x320 <= 1
 0 <= x321 <= 1
 0 <= x322 <= 1
 0 <= x323 <= 1
 0 <= x324 <= 1
 0 <= x325 <= 1
 0 <= x326 <= 1
 0 <= x327 <= 1
 0 <= x328 <= 1
 0 <= x329 <= 1
 0 <= x330 <= 1
 0 <= x331 <= 1
 0 <= x332 <= 1
 0 <= x333 <= 1
 0 <= x334 <= 1
 0 <= x335 <= 1
 0 <= x336 <= 1
 0 <= x337 <= 1
 0 <= x338 <= 1
 0 <= x339 <= 1
 0 <= x340 <= 1
 0 <= x341 <= 1
 0 <= x342 <= 1
 0 <= x343 <= 1
 0 <= x344 <= 1
 0 <= x345 <= 1
 0 <= x346 <= 1
 0 <= x347 <= 1
 0 <= x348 <= 1
 0 <= x349 <= 1
 0 <= x350 <= 1
 0 <= x351 <= 1
 0 <= x352 <= 1
 0 <= x353 <= 1
 0 <= x354 <= 1
 0 <= x355 <= 1
 0 <= x356 <= 1
 0 <= x357 <= 1
 0 <= x358 <= 1
 0 <= x359 <= 1
 0 <= x360 <= 1
 0 <= x361 <= 1
 0 <= x362 <= 1
 0 <= x363 <= 1
 0 <= x364 <= 1
 0 <= x365 <= 1
 0 <= x366 <= 1
 0 <= x367 <= 1
 0 <= x368 <= 1
 0 <= x369 <= 1
 0 <= x370 <= 1
 0 <= x371 <= 1
 0 <= x372 <= 1
 0 <= x373 <= 1
 0 <= x374 <= 1
 0 <= x375 <= 1
 0 <= x376 <= 1
 0 <= x377 <= 1
 0 <= x378 <= 1
 0 <= x379 <= 1
 0 <= x380 <= 1
 0 <= x381 <= 1
 0 <= x382 <= 1
 0 <= x383 <= 1
 0 <= x384 <= 1
 0 <= x385 <= 1
 0 <= x386 <= 1
 0 <= x387 <= 1
 0 <= x388 <= 1
 0 <= x389 <= 1
 0 <= x390 <= 1
 0 <= x391 <= 1
 0 <= x392 <= 1
 0 <= x393 <= 1
 0 <= x394 <= 1
 0 <= x395 <= 1
 0 <= x396 <= 1
 0 <= x397 <= 1
 0 <= x398 <= 1
 0 <= x399 <= 1
 0 <= x400 <= 1
 0 <= x401 <= 1
 0 <= x402 <= 1
 0 <= x403 <= 1
 0 <= x404 <= 1
 0 <= x405 <= 1
 0 <= x406 <= 1
 0 <= x407 <= 1
 0 <= x408 <= 1
 0 <= x409 <= 1
 0 <= x410 <= 1
 0 <= x411 <= 1
 0 <= x412 <= 1
 0 <= x413 <= 1
 0 <= x414 <= 1
 0 <= x415 <= 1
 0 <= x416 <= 1
 0 <= x417 <= 1
 0 <= x418 <= 1
 0 <= x419 <= 1
 0 <= x420 <= 1
 0 <= x421 <= 1
 0 <= x422 <= 1
 0 <= x423 <= 1
 0 <= x424 <= 1
 0 <= x425 <= 1
 0 <= x426 <= 1
 0 <= x427 <= 1
 0 <= x428 <= 1
 0 <= x429 <= 1
 0 <= x430 <= 1
 0 <= x431 <= 1
 0 <= x432 <= 1
 0 <= x433 <= 1
 0 <= x434 <= 1
 0 <= x435 <= 1
 0 <= x436 <= 1
 0 <= x437 <= 1
 0 <= x438 <= 1
 0 <= x439 <= 1
 0 <= x440 <= 1
 0 <= x441 <= 1
 0 <= x442 <= 1
 0 <= x443 <= 1
 0 <= x444 <= 1
 0 <= x445 <= 1
 0 <= x446 <= 1
 0 <= x447 <= 1
 0 <= x448 <= 1
 0 <= x449 <= 1
 0 <= x450 <= 1
 0 <= x451 <= 1
 0 <= x452 <= 1
 0 <= x453 <= 1
 0 <= x454 <= 1
 0 <= x455 <= 1
 0 <= x456 <= 1
 0 <= x457 <= 1
 0 <= x458 <= 1
 0 <= x459 <= 1
 0 <= x460 <= 1
 0 <= x461 <= 1
 0 <= x462 <= 1
 0 <= x463 <= 1
 0 <= x464 <= 1
 0 <= x465 <= 1
 0 <= x466 <= 1
 0 <= x467 <= 1
 0 <= x468 <= 1
 0 <= x469 <= 1
 0 <= x470 <= 1
 0 <= x471 <= 1
 0 <= x472 <= 1
 0 <= x473 <= 1
 0 <= x474 <= 1
 0 <= x475 <= 1
 0 <= x476 <= 1
 0 <= x477 <= 1
 0 <= x478 <= 1
 0 <= x479 <= 1
 0 <= x480 <= 1
 0 <= x481 <= 1
 0 <= x482 <= 1
 0 <= x483 <= 1
 0 <= x484 <= 1
 0 <= x485 <= 1
 0 <= x486 <= 1
 0 <= x487 <= 1
 0 <= x488 <= 1
 0 <= x489 <= 1
 0 <= x490 <= 1
 0 <= x491 <= 1
 0 <= x492 <= 1
 0 <= x493 <= 1
 0 <= x494 <= 1
 0 <= x495 <= 1
 0 <= x496 <= 1
 0 <= x497 <= 1
 0 <= x498 <= 1
 0 <= x499 <= 1
 0 <= x500 <= 1
 0 <= x501 <= 1
 0 <= x502 <= 1
 0 <= x503 <= 1
 0 <= x504 <= 1
 0 <= x505 <= 1
 0 <= x506 <= 1
 0 <= x507 <= 1
 0 <= x508 <= 1
 0 <= x509 <= 1
 0 <= x510 <= 1
 0 <= x511 <= 1
 0 <= x512 <= 1
 0 <= x513 <= 1
 0 <= x514 <= 1
 0 <= x515 <= 1
 0 <= x516 <= 1
 0 <= x517 <= 1
 0 <= x518 <= 1
 0 <= x519 <= 1
 0 <= x520 <= 1
 0 <= x521 <= 1
 0 <= x522 <= 1
 0 <= x523 <= 1
 0 <= x524 <= 1
 0 <= x525 <= 1
 0 <= x526 <= 1
 0 <= x527 <= 1
 0 <= x528 <= 1
 0 <= x529 <= 1
 0 <= x530 <= 1
 0 <= x531 <= 1
 0 <= x532 <= 1
 0 <= x533 <= 1
 0 <= x534 <= 1
 0 <= x535 <= 1
 0 <= x536 <= 1
 0 <= x537 <= 1
 0 <= x538 <= 1
 0 <= x539 <= 1
 0 <= x540 <= 1
 0 <= x541 <= 1
 0 <= x542 <= 1
 0 <= x543 <= 1
 0 <= x544 <= 1
 0 <= x545 <= 1
 0 <= x546 <= 1
 0 <= x547 <= 1
 0 <= x548 <= 1
 0 <= x549 <= 1
 0 <= x550 <= 1
 0 <= x551 <= 1
 0 <= x552 <= 1
 0 <= x553 <= 1
 0 <= x554 <= 1
 0 <= x555 <= 1
 0 <= x556 <= 1
 0 <= x557 <= 1
 0 <= x558 <= 1
 0 <= x559 <= 1
 0 <= x560 <= 1
 0 <= x561 <= 1
 0 <= x562 <= 1
 0 <= x563 <= 1
 0 <= x564 <= 1
 0 <= x565 <= 1
 0 <= x566 <= 1
 0 <= x567 <= 1
 0 <= x568 <= 1
 0 <= x569 <= 1
 0 <= x570 <= 1
 0 <= x571 <= 1
 0 <= x572 <= 1
 0 <= x573 <= 1
 0 <= x574 <= 1
 0 <= x575 <= 1
 0 <= x576 <= 1
 0 <= x577 <= 1
 0 <= x578 <= 1
 0 <= x579 <= 1
 0 <= x580 <= 1
 0 <= x581 <= 1
 0 <= x582 <= 1
 0 <= x583 <= 1
 0 <= x584 <= 1
 0 <= x585 <= 1
 0 <= x586 <= 1
 0 <= x587 <= 1
 0 <= x588 <= 1
 0 <= x589 <= 1
 0 <= x590 <= 1
 0 <= x591 <= 1
 0 <= x592 <= 1
 0 <= x593 <= 1
 0 <= x594 <= 1
 0 <= x595 <= 1
 0 <= x596 <= 1
 0 <= x597 <= 1
 0 <= x598 <= 1
 0 <= x599 <= 1
 0 <= x600 <= 1
 0 <= x601 <= 1
 0 <= x602 <= 1
 0 <= x603 <= 1
 0 <= x604 <= 1
 0 <= x605 <= 1
 0 <= x606 <= 1
 0 <= x607 <= 1
 0 <= x608 <= 1
 0 <= x609 <= 1
 0 <= x610 <= 1
 0 <= x611 <= 1
 0 <= x612 <= 1
 0 <= x613 <= 1
 0 <= x614 <= 1
 0 <= x615 <= 1
 0 <= x616 <= 1
 0 <= x617 <= 1
 0 <= x618 <= 1
 0 <= x619 <= 1
 0 <= x620 <= 1
 0 <= x621 <= 1
 0 <= x622 <= 1
 0 <= x623 <= 1
 0 <= x624 <= 1
 0 <= x625 <= 1
 0 <= x626 <= 1
 0 <= x627 <= 1
 0 <= x628 <= 1
 0 <= x629 <= 1
 0 <= x630 <= 1
 0 <= x631 <= 1
 0 <= x632 <= 1
 0 <= x633 <= 1
 0 <= x634 <= 1
 0 <= x635 <= 1
 0 <= x636 <= 1
 0 <= x637 <= 1
 0 <= x638 <= 1
 0 <= x639 <= 1
 0 <= x640 <= 1
 0 <= x641 <= 1
 0 <= x642 <= 1
 0 <= x643 <= 1
 0 <= x644 <= 1
 0 <= x645 <= 1
 0 <= x646 <= 1
 0 <= x647 <= 1
 0 <= x648 <= 1
 0 <= x649 <= 1
 0 <= x650 <= 1
 0 <= x651 <= 1
 0 <= x652 <= 1
 0 <= x653 <= 1
 0 <= x654 <= 1
 0 <= x655 <= 1
 0 <= x656 <= 1
 0 <= x657 <= 1
 0 <= x658 <= 1
 0 <= x659 <= 1
 0 <= x660 <= 1
Binaries
 x601  x602  x603  x604  x605  x606  x607  x608  x609  x610  x611  x612  x613 
 x614  x615  x616  x617  x618  x619  x620  x621  x622  x623  x624  x625  x626 
 x627  x628  x629  x630  x631  x632  x633  x634  x635  x636  x637  x638  x639 
 x640  x641  x642  x643  x644  x645  x646  x647  x648  x649  x650  x651  x652 
 x653  x654  x655  x656  x657  x658  x659  x660 
End
